11 50 8
2 4 83
0 0 28
5 0 53
0 9 15
2 9 5
7 0 75
9 7 91
8 3 49
4 5 99
6 10 73
0 1 24
9 10 17
7 5 60
9 5 73
5 5 99
9 1 88
10 8 57
1 5 0
3 9 9
7 2 92
9 0 57
1 9 34
5 6 88
6 2 19
6 5 60
3 4 50
0 1 40
2 0 86
7 3 63
7 0 36
4 7 0
0 6 36
7 9 75
5 5 71
7 9 39
4 1 89
0 1 44
4 3 52
10 9 5
4 5 60
9 8 90
3 6 68
7 2 62
2 6 86
10 2 13
2 6 93
4 4 68
10 7 41
3 6 18
8 10 8